NAME : XML100_1245_27
DIMENSION : 101
NB_CLUSTERS : 3
CLUSTERING_ALG : KMeans
CLUSTERING_PARAMS : k(2)
CLUSTERS
1 0
2 1 2 3 5 7 9 11 12 13 14 16 17 18 19 20 21 22 23 24 25 26 27 28 29 31 32 33 34 35 36 37 38 41 42 44 45 46 47 48 49 50 51 52 53 54 56 58 60 61 62 65 66 67 68 69 70 72 73 74 75 76 81 83 85 86 88 89 90 91 93 94 95 96 97 98 99
3 4 6 8 10 15 30 39 40 43 55 57 59 63 64 71 77 78 79 80 82 84 87 92 100
EOF